; PUSH cw_3 PUSH 0x00 DUP3 ADD MLOAD DUP2 => PUSH cw_3 DUP2 MLOAD PUSH cw_3
(set-option :produce-proofs true)
; 
(set-info :status unknown)
(declare-fun storage_t ((_ BitVec 256) (_ BitVec 256) (_ BitVec 256) Int (_ BitVec 256)) (_ BitVec 256))
(declare-fun w_3 () (_ BitVec 256))
(declare-fun storage_s ((_ BitVec 256) (_ BitVec 256) (_ BitVec 256) Int (_ BitVec 256)) (_ BitVec 256))
(declare-fun exc_halt_t (Int) Bool)
(declare-fun exc_halt_s (Int) Bool)
(declare-fun stack_t ((_ BitVec 256) (_ BitVec 256) (_ BitVec 256) Int (_ BitVec 6)) (_ BitVec 256))
(declare-fun stack_s ((_ BitVec 256) (_ BitVec 256) (_ BitVec 256) Int (_ BitVec 6)) (_ BitVec 256))
(declare-fun sc_t (Int) (_ BitVec 6))
(declare-fun sc_s (Int) (_ BitVec 6))
(declare-fun used_gas_t ((_ BitVec 256) (_ BitVec 256) (_ BitVec 256) Int) Int)
(declare-fun used_gas_s ((_ BitVec 256) (_ BitVec 256) (_ BitVec 256) Int) Int)
(declare-fun f_MLOAD ((_ BitVec 256) (_ BitVec 256) (_ BitVec 256) (_ BitVec 256)) (_ BitVec 256))
(assert
 (exists ((x_0 (_ BitVec 256)) (x_MLOAD_0 (_ BitVec 256)) )(let (($x3194 (forall ((w (_ BitVec 256)) )(let ((?x1917 (storage_t x_0 w_3 x_MLOAD_0 4 w)))
 (let ((?x1924 (storage_s x_0 w_3 x_MLOAD_0 6 w)))
 (= ?x1924 ?x1917))))
 ))
 (let (($x7722 (exc_halt_t 4)))
 (let (($x772 (exc_halt_s 6)))
 (let (($x5620 (= $x772 $x7722)))
 (let (($x4430 (forall ((n (_ BitVec 6)) )(let ((?x10436 (stack_t x_0 w_3 x_MLOAD_0 4 n)))
 (let ((?x4791 (stack_s x_0 w_3 x_MLOAD_0 6 n)))
 (let (($x2196 (= ?x4791 ?x10436)))
 (or (bvsle (sc_t 4) n) $x2196)))))
 ))
 (let ((?x11631 (sc_t 4)))
 (let ((?x926 (sc_s 6)))
 (let (($x11559 (= ?x926 ?x11631)))
 (let ((?x6762 (used_gas_t x_0 w_3 x_MLOAD_0 0)))
 (let ((?x11728 (used_gas_s x_0 w_3 x_MLOAD_0 0)))
 (let (($x6716 (= ?x11728 ?x6762)))
 (let (($x6921 (forall ((w (_ BitVec 256)) )(let ((?x1296 (storage_t x_0 w_3 x_MLOAD_0 0 w)))
 (let ((?x7253 (storage_s x_0 w_3 x_MLOAD_0 0 w)))
 (= ?x7253 ?x1296))))
 ))
 (let (($x56 (exc_halt_t 0)))
 (let (($x57 (exc_halt_s 0)))
 (let (($x58 (= $x57 $x56)))
 (let (($x9126 (forall ((n (_ BitVec 6)) )(let ((?x11024 (stack_t x_0 w_3 x_MLOAD_0 0 n)))
 (let ((?x4030 (stack_s x_0 w_3 x_MLOAD_0 0 n)))
 (let (($x7318 (= ?x4030 ?x11024)))
 (let ((?x63 (sc_t 0)))
 (let (($x2525 (bvsle ?x63 n)))
 (or $x2525 $x7318)))))))
 ))
 (let ((?x63 (sc_t 0)))
 (let ((?x72 (sc_s 0)))
 (let (($x73 (= ?x72 ?x63)))
 (let (($x6783 (exc_halt_t 3)))
 (let (($x5590 (or $x6783 (not (= ((_ extract 6 6) (bvadd (_ bv1 7) (concat (_ bv0 1) (sc_t 3)))) (_ bv0 1))))))
 (let (($x10463 (forall ((w (_ BitVec 256)) )(let ((?x8342 (storage_t x_0 w_3 x_MLOAD_0 3 w)))
 (let ((?x1917 (storage_t x_0 w_3 x_MLOAD_0 4 w)))
 (= ?x1917 ?x8342))))
 ))
 (let (($x8172 (forall ((n (_ BitVec 6)) )(let ((?x9045 (stack_t x_0 w_3 x_MLOAD_0 3 n)))
 (let ((?x10436 (stack_t x_0 w_3 x_MLOAD_0 4 n)))
 (or (= ?x10436 ?x9045) (bvsle (sc_t 3) n)))))
 ))
 (let (($x4628 (= (used_gas_t x_0 w_3 x_MLOAD_0 4) (+ 3 (used_gas_t x_0 w_3 x_MLOAD_0 3)))))
 (let (($x6648 (= $x6783 (or (exc_halt_t 2) (not (bvsle (_ bv0 6) (bvadd (_ bv63 6) (sc_t 2))))))))
 (let (($x2565 (forall ((w (_ BitVec 256)) )(let ((?x3769 (storage_t x_0 w_3 x_MLOAD_0 2 w)))
 (let ((?x8342 (storage_t x_0 w_3 x_MLOAD_0 3 w)))
 (= ?x8342 ?x3769))))
 ))
 (let (($x10127 (forall ((n (_ BitVec 6)) )(let ((?x11423 (stack_t x_0 w_3 x_MLOAD_0 2 n)))
 (let ((?x9045 (stack_t x_0 w_3 x_MLOAD_0 3 n)))
 (or (bvsle (bvadd (_ bv63 6) (sc_t 2)) n) (= ?x9045 ?x11423)))))
 ))
 (let ((?x9839 (used_gas_t x_0 w_3 x_MLOAD_0 3)))
 (let ((?x2714 (sc_t 2)))
 (let ((?x5200 (bvadd (_ bv63 6) ?x2714)))
 (let ((?x655 (stack_t x_0 w_3 x_MLOAD_0 2 ?x5200)))
 (let (($x8512 (= (stack_t x_0 w_3 x_MLOAD_0 3 (bvadd (_ bv63 6) (sc_t 3))) (f_MLOAD x_0 w_3 x_MLOAD_0 ?x655))))
 (let (($x3508 (exc_halt_t 1)))
 (let (($x4079 (or (not (bvsle (_ bv0 6) (bvadd (_ bv62 6) (sc_t 1)))) $x3508 (not (= ((_ extract 6 6) (bvadd (_ bv1 7) (concat (_ bv0 1) (sc_t 1)))) (_ bv0 1))))))
 (let (($x3071 (exc_halt_t 2)))
 (let (($x1014 (forall ((w (_ BitVec 256)) )(let ((?x7049 (storage_t x_0 w_3 x_MLOAD_0 1 w)))
 (let ((?x3769 (storage_t x_0 w_3 x_MLOAD_0 2 w)))
 (= ?x3769 ?x7049))))
 ))
 (let (($x2439 (forall ((n (_ BitVec 6)) )(let ((?x1657 (stack_t x_0 w_3 x_MLOAD_0 1 n)))
 (let ((?x11423 (stack_t x_0 w_3 x_MLOAD_0 2 n)))
 (or (bvsle (bvadd (_ bv62 6) (sc_t 1)) n) (= ?x11423 ?x1657)))))
 ))
 (let ((?x10048 (used_gas_t x_0 w_3 x_MLOAD_0 2)))
 (let (($x3929 (= (stack_t x_0 w_3 x_MLOAD_0 2 (bvadd (_ bv63 6) (sc_t 1))) (stack_t x_0 w_3 x_MLOAD_0 1 (bvadd (_ bv63 6) (sc_t 1))))))
 (let ((?x8347 (sc_t 1)))
 (let ((?x11561 (bvadd (_ bv62 6) ?x8347)))
 (let ((?x9253 (stack_t x_0 w_3 x_MLOAD_0 1 ?x11561)))
 (let (($x3521 (= $x3508 (or $x56 (not (= ((_ extract 6 6) (bvadd (_ bv1 7) (concat (_ bv0 1) ?x63))) (_ bv0 1)))))))
 (let (($x11183 (forall ((w (_ BitVec 256)) )(let ((?x1296 (storage_t x_0 w_3 x_MLOAD_0 0 w)))
 (let ((?x7049 (storage_t x_0 w_3 x_MLOAD_0 1 w)))
 (= ?x7049 ?x1296))))
 ))
 (let (($x74 (forall ((n (_ BitVec 6)) )(let ((?x11024 (stack_t x_0 w_3 x_MLOAD_0 0 n)))
 (let ((?x1657 (stack_t x_0 w_3 x_MLOAD_0 1 n)))
 (let ((?x63 (sc_t 0)))
 (let (($x2525 (bvsle ?x63 n)))
 (or $x2525 (= ?x1657 ?x11024)))))))
 ))
 (let (($x11317 (exc_halt_s 5)))
 (let (($x9349 (or $x11317 (not (bvsle (_ bv0 6) (bvadd (_ bv62 6) (sc_s 5)))) (not (= ((_ extract 6 6) (bvadd (_ bv1 7) (concat (_ bv0 1) (sc_s 5)))) (_ bv0 1))))))
 (let (($x2904 (forall ((w (_ BitVec 256)) )(let ((?x7486 (storage_s x_0 w_3 x_MLOAD_0 5 w)))
 (let ((?x1924 (storage_s x_0 w_3 x_MLOAD_0 6 w)))
 (= ?x1924 ?x7486))))
 ))
 (let (($x11653 (forall ((n (_ BitVec 6)) )(let ((?x9490 (stack_s x_0 w_3 x_MLOAD_0 5 n)))
 (let ((?x4791 (stack_s x_0 w_3 x_MLOAD_0 6 n)))
 (or (= ?x4791 ?x9490) (bvsle (bvadd (_ bv62 6) (sc_s 5)) n)))))
 ))
 (let (($x5839 (= (used_gas_s x_0 w_3 x_MLOAD_0 6) (+ 3 (used_gas_s x_0 w_3 x_MLOAD_0 5)))))
 (let ((?x4319 (sc_s 5)))
 (let ((?x2994 (bvadd (_ bv63 6) ?x4319)))
 (let ((?x2654 (stack_s x_0 w_3 x_MLOAD_0 5 ?x2994)))
 (let ((?x1412 (bvadd (_ bv62 6) ?x4319)))
 (let ((?x501 (stack_s x_0 w_3 x_MLOAD_0 5 ?x1412)))
 (let (($x3195 (= $x11317 (or (exc_halt_s 4) (not (bvsle (_ bv0 6) (bvadd (_ bv63 6) (sc_s 4))))))))
 (let (($x1270 (forall ((w (_ BitVec 256)) )(let ((?x177 (storage_s x_0 w_3 x_MLOAD_0 4 w)))
 (let ((?x7486 (storage_s x_0 w_3 x_MLOAD_0 5 w)))
 (= ?x7486 ?x177))))
 ))
 (let (($x4683 (forall ((n (_ BitVec 6)) )(let ((?x7607 (stack_s x_0 w_3 x_MLOAD_0 4 n)))
 (let ((?x9490 (stack_s x_0 w_3 x_MLOAD_0 5 n)))
 (or (bvsle (bvadd (_ bv63 6) (sc_s 4)) n) (= ?x9490 ?x7607)))))
 ))
 (let ((?x37 (used_gas_s x_0 w_3 x_MLOAD_0 5)))
 (let ((?x4305 (sc_s 4)))
 (let ((?x11124 (bvadd (_ bv63 6) ?x4305)))
 (let ((?x2151 (stack_s x_0 w_3 x_MLOAD_0 4 ?x11124)))
 (let (($x7172 (exc_halt_s 4)))
 (let (($x7783 (= $x7172 (or (exc_halt_s 3) (not (bvsle (_ bv0 6) (bvadd (_ bv62 6) (sc_s 3))))))))
 (let (($x4501 (forall ((w (_ BitVec 256)) )(let ((?x648 (storage_s x_0 w_3 x_MLOAD_0 3 w)))
 (let ((?x177 (storage_s x_0 w_3 x_MLOAD_0 4 w)))
 (= ?x177 ?x648))))
 ))
 (let (($x6186 (forall ((n (_ BitVec 6)) )(let ((?x3545 (stack_s x_0 w_3 x_MLOAD_0 3 n)))
 (let ((?x7607 (stack_s x_0 w_3 x_MLOAD_0 4 n)))
 (or (= ?x7607 ?x3545) (bvsle (bvadd (_ bv62 6) (sc_s 3)) n)))))
 ))
 (let ((?x4681 (used_gas_s x_0 w_3 x_MLOAD_0 4)))
 (let ((?x275 (sc_s 3)))
 (let ((?x3684 (bvadd (_ bv63 6) ?x275)))
 (let ((?x8844 (stack_s x_0 w_3 x_MLOAD_0 3 ?x3684)))
 (let (($x7790 (= ?x2151 (bvadd ?x8844 (stack_s x_0 w_3 x_MLOAD_0 3 (bvadd (_ bv62 6) ?x275))))))
 (let (($x247 (exc_halt_s 2)))
 (let (($x2996 (or $x247 (not (bvsle (_ bv0 6) (bvadd (_ bv61 6) (sc_s 2)))) (not (= ((_ extract 6 6) (bvadd (_ bv1 7) (concat (_ bv0 1) (sc_s 2)))) (_ bv0 1))))))
 (let (($x292 (exc_halt_s 3)))
 (let (($x4494 (forall ((w (_ BitVec 256)) )(let ((?x1834 (storage_s x_0 w_3 x_MLOAD_0 2 w)))
 (let ((?x648 (storage_s x_0 w_3 x_MLOAD_0 3 w)))
 (= ?x648 ?x1834))))
 ))
 (let (($x1034 (forall ((n (_ BitVec 6)) )(let ((?x762 (stack_s x_0 w_3 x_MLOAD_0 2 n)))
 (let ((?x3545 (stack_s x_0 w_3 x_MLOAD_0 3 n)))
 (or (bvsle (bvadd (_ bv61 6) (sc_s 2)) n) (= ?x3545 ?x762)))))
 ))
 (let ((?x8817 (used_gas_s x_0 w_3 x_MLOAD_0 3)))
 (let (($x8758 (= (stack_s x_0 w_3 x_MLOAD_0 3 (bvadd (_ bv63 6) (sc_s 2))) (stack_s x_0 w_3 x_MLOAD_0 2 (bvadd (_ bv63 6) (sc_s 2))))))
 (let (($x7446 (= (stack_s x_0 w_3 x_MLOAD_0 3 (bvadd (_ bv62 6) (sc_s 2))) (stack_s x_0 w_3 x_MLOAD_0 2 (bvadd (_ bv62 6) (sc_s 2))))))
 (let ((?x218 (sc_s 2)))
 (let ((?x861 (bvadd (_ bv61 6) ?x218)))
 (let ((?x1676 (stack_s x_0 w_3 x_MLOAD_0 2 ?x861)))
 (let (($x189 (exc_halt_s 1)))
 (let (($x5143 (or $x189 (not (= ((_ extract 6 6) (bvadd (_ bv1 7) (concat (_ bv0 1) (sc_s 1)))) (_ bv0 1))))))
 (let (($x11843 (forall ((w (_ BitVec 256)) )(let ((?x9357 (storage_s x_0 w_3 x_MLOAD_0 1 w)))
 (let ((?x1834 (storage_s x_0 w_3 x_MLOAD_0 2 w)))
 (= ?x1834 ?x9357))))
 ))
 (let (($x8816 (forall ((n (_ BitVec 6)) )(let ((?x8551 (stack_s x_0 w_3 x_MLOAD_0 1 n)))
 (let ((?x762 (stack_s x_0 w_3 x_MLOAD_0 2 n)))
 (or (bvsle (sc_s 1) n) (= ?x762 ?x8551)))))
 ))
 (let ((?x1159 (used_gas_s x_0 w_3 x_MLOAD_0 2)))
 (let (($x9459 (= $x189 (or $x57 (not (= ((_ extract 6 6) (bvadd (_ bv1 7) (concat (_ bv0 1) ?x72))) (_ bv0 1)))))))
 (let (($x5052 (forall ((w (_ BitVec 256)) )(let ((?x7253 (storage_s x_0 w_3 x_MLOAD_0 0 w)))
 (let ((?x9357 (storage_s x_0 w_3 x_MLOAD_0 1 w)))
 (= ?x9357 ?x7253))))
 ))
 (let (($x10588 (forall ((n (_ BitVec 6)) )(let ((?x4030 (stack_s x_0 w_3 x_MLOAD_0 0 n)))
 (let ((?x8551 (stack_s x_0 w_3 x_MLOAD_0 1 n)))
 (or (bvsle (sc_s 0) n) (= ?x8551 ?x4030)))))
 ))
 (let (($x10661 (forall ((w0 (_ BitVec 256)) )(let ((?x10029 (ite (= (stack_s x_0 w_3 x_MLOAD_0 4 (bvadd (_ bv63 6) (sc_s 4))) w0) x_MLOAD_0 (_ bv0 256))))
 (let ((?x1202 (f_MLOAD x_0 w_3 x_MLOAD_0 w0)))
 (= ?x1202 ?x10029))))
 ))
 (let (($x5472 (forall ((w (_ BitVec 256)) )(let ((?x7253 (storage_s x_0 w_3 x_MLOAD_0 0 w)))
 (= ?x7253 (_ bv0 256))))
 ))
 (let (($x5318 (= ?x11728 0)))
 (let (($x3805 (= (stack_s x_0 w_3 x_MLOAD_0 0 (_ bv0 6)) x_0)))
 (let (($x8685 (= ?x72 (_ bv1 6))))
 (and $x8685 $x3805 (not $x57) $x5318 $x5472 $x10661 (= (stack_s x_0 w_3 x_MLOAD_0 1 ?x72) w_3) (= (used_gas_s x_0 w_3 x_MLOAD_0 1) (+ 3 ?x11728)) (= (sc_s 1) (bvadd (_ bv1 6) ?x72)) $x10588 $x5052 $x9459 (= (stack_s x_0 w_3 x_MLOAD_0 2 (sc_s 1)) (_ bv0 256)) (= ?x1159 (+ 3 (used_gas_s x_0 w_3 x_MLOAD_0 1))) (= ?x218 (bvadd (_ bv1 6) (sc_s 1))) $x8816 $x11843 (= $x247 $x5143) (= ?x8844 ?x1676) (= (stack_s x_0 w_3 x_MLOAD_0 3 ?x861) ?x1676) $x7446 $x8758 (= ?x8817 (+ 3 ?x1159)) (= ?x275 (bvadd (_ bv1 6) ?x218)) $x1034 $x4494 (= $x292 $x2996) $x7790 (= ?x4681 (+ 3 ?x8817)) (= ?x4305 ?x3684) $x6186 $x4501 $x7783 (= ?x2654 (f_MLOAD x_0 w_3 x_MLOAD_0 ?x2151)) (= ?x37 (+ 3 ?x4681)) (= ?x4319 ?x4305) $x4683 $x1270 $x3195 (= (stack_s x_0 w_3 x_MLOAD_0 6 (bvadd (_ bv63 6) ?x926)) ?x501) (= (stack_s x_0 w_3 x_MLOAD_0 6 ?x1412) ?x501) (= (stack_s x_0 w_3 x_MLOAD_0 6 ?x2994) ?x2654) $x5839 (= ?x926 (bvadd (_ bv1 6) ?x4319)) $x11653 $x2904 (= $x772 $x9349) (= (stack_t x_0 w_3 x_MLOAD_0 1 ?x63) w_3) (= (used_gas_t x_0 w_3 x_MLOAD_0 1) (+ 3 ?x6762)) (= ?x8347 (bvadd (_ bv1 6) ?x63)) $x74 $x11183 $x3521 (= ?x655 ?x9253) (= (stack_t x_0 w_3 x_MLOAD_0 2 ?x11561) ?x9253) $x3929 (= ?x10048 (+ 3 (used_gas_t x_0 w_3 x_MLOAD_0 1))) (= ?x2714 (bvadd (_ bv1 6) ?x8347)) $x2439 $x1014 (= $x3071 $x4079) $x8512 (= ?x9839 (+ 3 ?x10048)) (= (sc_t 3) ?x2714) $x10127 $x2565 $x6648 (= (stack_t x_0 w_3 x_MLOAD_0 4 (sc_t 3)) w_3) $x4628 (= ?x11631 (bvadd (_ bv1 6) (sc_t 3))) $x8172 $x10463 (= $x7722 $x5590) $x73 $x9126 $x58 $x6921 $x6716 (not (and $x11559 $x4430 $x5620 $x3194)))))))))))))))))))))))))))))))))))))))))))))))))))))))))))))))))))))))))))))))))))))))))))))))))))
 )
(check-sat)
(get-proof)
